% Strimko Weekly Set 068
n = 4;
streams = array2d(1..n, 1..n*2, [
                    1,1, 2,2, 3,3, 4,4,
                    2,1, 1,2, 1,3, 2,4,
                    3,1, 4,2, 4,3, 3,4,
                    4,1, 3,2, 2,3, 1,4
                   ]);

num_placed = 3;
placed = array2d(1..num_placed, 1..3, [
                             2,2,3,
                             2,3,2,
                             3,3,1
                           ]);

